TOUR_SECTION
12
108
23
28
103
90
111
157
43
83
117
94
146
27
9
58
16
29
115
32
15
40
200
125
97
123
193
164
71
137
14
138
112
22
88
194
161
188
186
69
44
74
119
79
8
191
153
56
73
37
169
154
136
85
66
80
51
158
118
127
46
109
143
102
55
82
171
128
13
92
105
42
53
135
107
1
78
35
81
49
181
6
150
62
198
116
142
145
63
75
61
182
139
172
178
64
84
41
86
91
34
59
155
104
196
124
132
89
30
101
187
33
159
199
130
141
173
114
5
99
176
149
10
17
170
183
151
163
4
26
179
189
144
11
39
110
68
48
134
19
38
36
131
174
162
167
65
177
77
31
120
148
18
152
133
3
95
185
25
50
156
2
60
192
24
147
129
168
126
165
184
21
20
195
180
52
96
175
72
57
140
67
100
76
106
70
113
47
54
45
93
87
121
98
190
166
122
7
197
160
-1
EOF